40
    17     8    61    32    63    36    43    41    77    64    90    36    96    65    89    53    85    63     9    32    38    38    93    16    76    22    65    51    49    99    26    84    35     7    56    70    40    38    11    62
    10     9    10     6     7     9     2    10     9     7     3     7     2     7     5     9     2     7     5     7     3     1    10     5     7     9     5     8     4     7     4     1     4     8     8     1     3     9     9     3
   602   476   347   346   321   320   277   473   492   244   595   307   293   221   208   249   406   521   497   259   539   384   509   450   415   541   472   269   532   264   235   304   306   288   345   244   465   270   486   290
